50

 0   1   2   3   4   1   2   3   4   5   2   3   4   5   6   3   4   5   6   7   4   5   6   7   8   5   6   7   8   9   6   7   8   9  10   7   8   9  10  11   8   9  10  11  12   9  10  11  12  13  
 1   0   1   2   3   2   1   2   3   4   3   2   3   4   5   4   3   4   5   6   5   4   5   6   7   6   5   6   7   8   7   6   7   8   9   8   7   8   9  10   9   8   9  10  11  10   9  10  11  12  
 2   1   0   1   2   3   2   1   2   3   4   3   2   3   4   5   4   3   4   5   6   5   4   5   6   7   6   5   6   7   8   7   6   7   8   9   8   7   8   9  10   9   8   9  10  11  10   9  10  11  
 3   2   1   0   1   4   3   2   1   2   5   4   3   2   3   6   5   4   3   4   7   6   5   4   5   8   7   6   5   6   9   8   7   6   7  10   9   8   7   8  11  10   9   8   9  12  11  10   9  10  
 4   3   2   1   0   5   4   3   2   1   6   5   4   3   2   7   6   5   4   3   8   7   6   5   4   9   8   7   6   5  10   9   8   7   6  11  10   9   8   7  12  11  10   9   8  13  12  11  10   9  
 1   2   3   4   5   0   1   2   3   4   1   2   3   4   5   2   3   4   5   6   3   4   5   6   7   4   5   6   7   8   5   6   7   8   9   6   7   8   9  10   7   8   9  10  11   8   9  10  11  12  
 2   1   2   3   4   1   0   1   2   3   2   1   2   3   4   3   2   3   4   5   4   3   4   5   6   5   4   5   6   7   6   5   6   7   8   7   6   7   8   9   8   7   8   9  10   9   8   9  10  11  
 3   2   1   2   3   2   1   0   1   2   3   2   1   2   3   4   3   2   3   4   5   4   3   4   5   6   5   4   5   6   7   6   5   6   7   8   7   6   7   8   9   8   7   8   9  10   9   8   9  10  
 4   3   2   1   2   3   2   1   0   1   4   3   2   1   2   5   4   3   2   3   6   5   4   3   4   7   6   5   4   5   8   7   6   5   6   9   8   7   6   7  10   9   8   7   8  11  10   9   8   9  
 5   4   3   2   1   4   3   2   1   0   5   4   3   2   1   6   5   4   3   2   7   6   5   4   3   8   7   6   5   4   9   8   7   6   5  10   9   8   7   6  11  10   9   8   7  12  11  10   9   8  
 2   3   4   5   6   1   2   3   4   5   0   1   2   3   4   1   2   3   4   5   2   3   4   5   6   3   4   5   6   7   4   5   6   7   8   5   6   7   8   9   6   7   8   9  10   7   8   9  10  11  
 3   2   3   4   5   2   1   2   3   4   1   0   1   2   3   2   1   2   3   4   3   2   3   4   5   4   3   4   5   6   5   4   5   6   7   6   5   6   7   8   7   6   7   8   9   8   7   8   9  10  
 4   3   2   3   4   3   2   1   2   3   2   1   0   1   2   3   2   1   2   3   4   3   2   3   4   5   4   3   4   5   6   5   4   5   6   7   6   5   6   7   8   7   6   7   8   9   8   7   8   9  
 5   4   3   2   3   4   3   2   1   2   3   2   1   0   1   4   3   2   1   2   5   4   3   2   3   6   5   4   3   4   7   6   5   4   5   8   7   6   5   6   9   8   7   6   7  10   9   8   7   8  
 6   5   4   3   2   5   4   3   2   1   4   3   2   1   0   5   4   3   2   1   6   5   4   3   2   7   6   5   4   3   8   7   6   5   4   9   8   7   6   5  10   9   8   7   6  11  10   9   8   7  
 3   4   5   6   7   2   3   4   5   6   1   2   3   4   5   0   1   2   3   4   1   2   3   4   5   2   3   4   5   6   3   4   5   6   7   4   5   6   7   8   5   6   7   8   9   6   7   8   9  10  
 4   3   4   5   6   3   2   3   4   5   2   1   2   3   4   1   0   1   2   3   2   1   2   3   4   3   2   3   4   5   4   3   4   5   6   5   4   5   6   7   6   5   6   7   8   7   6   7   8   9  
 5   4   3   4   5   4   3   2   3   4   3   2   1   2   3   2   1   0   1   2   3   2   1   2   3   4   3   2   3   4   5   4   3   4   5   6   5   4   5   6   7   6   5   6   7   8   7   6   7   8  
 6   5   4   3   4   5   4   3   2   3   4   3   2   1   2   3   2   1   0   1   4   3   2   1   2   5   4   3   2   3   6   5   4   3   4   7   6   5   4   5   8   7   6   5   6   9   8   7   6   7  
 7   6   5   4   3   6   5   4   3   2   5   4   3   2   1   4   3   2   1   0   5   4   3   2   1   6   5   4   3   2   7   6   5   4   3   8   7   6   5   4   9   8   7   6   5  10   9   8   7   6  
 4   5   6   7   8   3   4   5   6   7   2   3   4   5   6   1   2   3   4   5   0   1   2   3   4   1   2   3   4   5   2   3   4   5   6   3   4   5   6   7   4   5   6   7   8   5   6   7   8   9  
 5   4   5   6   7   4   3   4   5   6   3   2   3   4   5   2   1   2   3   4   1   0   1   2   3   2   1   2   3   4   3   2   3   4   5   4   3   4   5   6   5   4   5   6   7   6   5   6   7   8  
 6   5   4   5   6   5   4   3   4   5   4   3   2   3   4   3   2   1   2   3   2   1   0   1   2   3   2   1   2   3   4   3   2   3   4   5   4   3   4   5   6   5   4   5   6   7   6   5   6   7  
 7   6   5   4   5   6   5   4   3   4   5   4   3   2   3   4   3   2   1   2   3   2   1   0   1   4   3   2   1   2   5   4   3   2   3   6   5   4   3   4   7   6   5   4   5   8   7   6   5   6  
 8   7   6   5   4   7   6   5   4   3   6   5   4   3   2   5   4   3   2   1   4   3   2   1   0   5   4   3   2   1   6   5   4   3   2   7   6   5   4   3   8   7   6   5   4   9   8   7   6   5  
 5   6   7   8   9   4   5   6   7   8   3   4   5   6   7   2   3   4   5   6   1   2   3   4   5   0   1   2   3   4   1   2   3   4   5   2   3   4   5   6   3   4   5   6   7   4   5   6   7   8  
 6   5   6   7   8   5   4   5   6   7   4   3   4   5   6   3   2   3   4   5   2   1   2   3   4   1   0   1   2   3   2   1   2   3   4   3   2   3   4   5   4   3   4   5   6   5   4   5   6   7  
 7   6   5   6   7   6   5   4   5   6   5   4   3   4   5   4   3   2   3   4   3   2   1   2   3   2   1   0   1   2   3   2   1   2   3   4   3   2   3   4   5   4   3   4   5   6   5   4   5   6  
 8   7   6   5   6   7   6   5   4   5   6   5   4   3   4   5   4   3   2   3   4   3   2   1   2   3   2   1   0   1   4   3   2   1   2   5   4   3   2   3   6   5   4   3   4   7   6   5   4   5  
 9   8   7   6   5   8   7   6   5   4   7   6   5   4   3   6   5   4   3   2   5   4   3   2   1   4   3   2   1   0   5   4   3   2   1   6   5   4   3   2   7   6   5   4   3   8   7   6   5   4  
 6   7   8   9  10   5   6   7   8   9   4   5   6   7   8   3   4   5   6   7   2   3   4   5   6   1   2   3   4   5   0   1   2   3   4   1   2   3   4   5   2   3   4   5   6   3   4   5   6   7  
 7   6   7   8   9   6   5   6   7   8   5   4   5   6   7   4   3   4   5   6   3   2   3   4   5   2   1   2   3   4   1   0   1   2   3   2   1   2   3   4   3   2   3   4   5   4   3   4   5   6  
 8   7   6   7   8   7   6   5   6   7   6   5   4   5   6   5   4   3   4   5   4   3   2   3   4   3   2   1   2   3   2   1   0   1   2   3   2   1   2   3   4   3   2   3   4   5   4   3   4   5  
 9   8   7   6   7   8   7   6   5   6   7   6   5   4   5   6   5   4   3   4   5   4   3   2   3   4   3   2   1   2   3   2   1   0   1   4   3   2   1   2   5   4   3   2   3   6   5   4   3   4  
10   9   8   7   6   9   8   7   6   5   8   7   6   5   4   7   6   5   4   3   6   5   4   3   2   5   4   3   2   1   4   3   2   1   0   5   4   3   2   1   6   5   4   3   2   7   6   5   4   3  
 7   8   9  10  11   6   7   8   9  10   5   6   7   8   9   4   5   6   7   8   3   4   5   6   7   2   3   4   5   6   1   2   3   4   5   0   1   2   3   4   1   2   3   4   5   2   3   4   5   6  
 8   7   8   9  10   7   6   7   8   9   6   5   6   7   8   5   4   5   6   7   4   3   4   5   6   3   2   3   4   5   2   1   2   3   4   1   0   1   2   3   2   1   2   3   4   3   2   3   4   5  
 9   8   7   8   9   8   7   6   7   8   7   6   5   6   7   6   5   4   5   6   5   4   3   4   5   4   3   2   3   4   3   2   1   2   3   2   1   0   1   2   3   2   1   2   3   4   3   2   3   4  
10   9   8   7   8   9   8   7   6   7   8   7   6   5   6   7   6   5   4   5   6   5   4   3   4   5   4   3   2   3   4   3   2   1   2   3   2   1   0   1   4   3   2   1   2   5   4   3   2   3  
11  10   9   8   7  10   9   8   7   6   9   8   7   6   5   8   7   6   5   4   7   6   5   4   3   6   5   4   3   2   5   4   3   2   1   4   3   2   1   0   5   4   3   2   1   6   5   4   3   2  
 8   9  10  11  12   7   8   9  10  11   6   7   8   9  10   5   6   7   8   9   4   5   6   7   8   3   4   5   6   7   2   3   4   5   6   1   2   3   4   5   0   1   2   3   4   1   2   3   4   5  
 9   8   9  10  11   8   7   8   9  10   7   6   7   8   9   6   5   6   7   8   5   4   5   6   7   4   3   4   5   6   3   2   3   4   5   2   1   2   3   4   1   0   1   2   3   2   1   2   3   4  
10   9   8   9  10   9   8   7   8   9   8   7   6   7   8   7   6   5   6   7   6   5   4   5   6   5   4   3   4   5   4   3   2   3   4   3   2   1   2   3   2   1   0   1   2   3   2   1   2   3  
11  10   9   8   9  10   9   8   7   8   9   8   7   6   7   8   7   6   5   6   7   6   5   4   5   6   5   4   3   4   5   4   3   2   3   4   3   2   1   2   3   2   1   0   1   4   3   2   1   2  
12  11  10   9   8  11  10   9   8   7  10   9   8   7   6   9   8   7   6   5   8   7   6   5   4   7   6   5   4   3   6   5   4   3   2   5   4   3   2   1   4   3   2   1   0   5   4   3   2   1  
 9  10  11  12  13   8   9  10  11  12   7   8   9  10  11   6   7   8   9  10   5   6   7   8   9   4   5   6   7   8   3   4   5   6   7   2   3   4   5   6   1   2   3   4   5   0   1   2   3   4  
10   9  10  11  12   9   8   9  10  11   8   7   8   9  10   7   6   7   8   9   6   5   6   7   8   5   4   5   6   7   4   3   4   5   6   3   2   3   4   5   2   1   2   3   4   1   0   1   2   3  
11  10   9  10  11  10   9   8   9  10   9   8   7   8   9   8   7   6   7   8   7   6   5   6   7   6   5   4   5   6   5   4   3   4   5   4   3   2   3   4   3   2   1   2   3   2   1   0   1   2  
12  11  10   9  10  11  10   9   8   9  10   9   8   7   8   9   8   7   6   7   8   7   6   5   6   7   6   5   4   5   6   5   4   3   4   5   4   3   2   3   4   3   2   1   2   3   2   1   0   1  
13  12  11  10   9  12  11  10   9   8  11  10   9   8   7  10   9   8   7   6   9   8   7   6   5   8   7   6   5   4   7   6   5   4   3   6   5   4   3   2   5   4   3   2   1   4   3   2   1   0  

 0  27  45   0   0  40   0  16  53  12  99   0  90  26  49  35   0   0   0   0  51  54  26  26   0  60  93   0   0  94   0  86  37  66  12   0  55  43  72   0  44   0  50  83  58   0   0  10  22   0  
39   0   0   0   0  83  97   0  97   0  81   0   0   0  40  10   0  50   0   0   0   0   0  24   0  34   0   0   0  94   0  68   0   0  65   0  53   0   1   0   0  85   0  89  59   0   0   0   0  32  
18   0   0   0   0  24   0  36   0  57   0   0   1  95   0  79  85   0   0   0   6  46  13  66  39   0   1  51   0  92   0   0  68  48   0   0   0  63   0   0   0   0  98   4   0   6   0  54  63   0  
 0   0   0   0  55   0  89   0  61   0   0  74  72   0   0  53  89   0  97  94   0   0   0  30   0  72   0   0  92   0  22   0  20   0  61   4   0   0   0  26  52  66   0   0   0   0  99   0   0  59  
 0   0   0  26   0   0  60   0   0   0   0  85  17   0   0   0  95   0  67  61   0   0   0  47   0   0   0   0  78   0  30   0  62   0   0  31   0   0   0  52  69   0   0   0   0   0  30  65   0   0  
42   0  94   0   0   0   0  94   0  97   0   0   3  60   0   7   1   0  32  21  73   6   0  99  11   0  28  51  20   0   0   0  74  39  88   0   0   9   0   0   1   0  64   0   0  49   0  53   0   0  
 0  36   0  52  60   0   0   0  89   0   0   6  79   0   0  57  71  74  99  30   0  44  77   0   0  70   0   0  67   0  27   0  40   0  71   1  88   0   0  70  40   1   0   0   0   0  46   0   0  85  
14   0  30   0   0  40   0   0   0   7   0   0  21  15  35   9   0   0   0   0   4  38  90  40  86   0  52  36   0   0   0  10   6  48  70   0   0  50   0   0   9  11   7  13   0   9   0  73  31   0  
46  33   0  23   0   0  14   0   0   0  53  48   7  82  86  78  28  81   0   0   0   0   0   0   0  74   0   0  90   1   0  98  23   0   1   0   9   0  77  37  43  46  61  94  18   0   0   0   0  71  
 0   0  81   0   0  96   0  27   0   0   0  68  35   0   0   0   0   0  64   0   0   0   0  85  27   0   0  14   0   0   0   0  63  92   0   0   0  58   0   0  76   0  53  51   0  88   0  11   0   0  
14  87   0   0  97   0   0   0  30  70   0   0   0  31  37  65   0   0   0   0  42  49  95   0   0  60  28   0  89  47   0  94   0   0   0   0  74   0  89   0   0   0   0  20  52   0   0   0  88   0  
 0   0   0  63  45   0  27   0   1   0   0   0  56   0   0  73  51   0   1  41   0   0   0  10   0   0   0   0  62   0  69   0  10   0   8  34   0   0   0  50  84  78   0   0   0   0  71   0   0  40  
10   0   1  39  12  36  99  17  72  53   0  58   0  68   0  10  45   0  22  11   0   0   0  43  11  89  18  35  23   0  17  91  28  50  75   0  19  87   0  64  93  93  39  68   0  52  72  13   0   6  
80   0  67   0   0  76   0  66  18   0  13   0  55   0  42  52   0   0   0   0  57  34  76  77  86   0  51  45   0   0   0   1  75   8  58   0   2  65  43   0  69   0  32  50   4  31   0  31  11   0  
15  92   0   0   0   0   0  76  16   0  89   0   0   3   0  22   0   0   0   0  38  22  58   0   0   0  71   0   0   0   0   6   0   0  84   0  38  26  34   0   0   0   0  41   5   0   0   0  38   0  
30  72   8  53   0  23  58  67  89   0  42  24  21  82  47   0  72   0  49   0  59   1  72  49   1  20   7   1  51   0   0  87  20  22  63   0  32  19  43   0  16  37  40  59  18   0   0  17  22  12  
 0   0   0  99  70  75  71   0  30   0   0  13  73   0   0  88   0   0  68  77   0   0   0  28  49   0   0  36  79   0  98   0  47   0  14  79   0   0   0  39  94  44  13   0   0   0  41   0   0  26  
 0  18   0   0   0   0  59   0  24   0   0   0   0   0   0   0   0   0   0   0   0   0   0   0   0  34   0   0   0  89   0   0   0   0  32   0  68   0  50  34   0  17   0   0  56   0   0   0   0  42  
 0   0   0  39  20  22  33   0   0  28   0  25  73   0   0   0  41   0   0  15   0   0   0  42  60   0   0  91  63   0  37   0  71   0  36  15   0   0   0   1  17   0  65   0   0  63  37  13   0   0  
 0   0   0  17  37   2  98   0   0   0   0  47  89   0   0   0  28   0  21   0  14   0   0  72  13   0  89  23   5   0  49   0  53   0  35  16   0   0   0  83  42   0  96   0   0   0  66   0   0   0  
72   0  85   0   0  77   0  90   0   0  81   0   0  47   4  26   0   0   0   0   0  25  41   0   0   0  60   0   0   0  19  72   0  33   0   0   0  86  25   0   0   0  15  51  98   0   0   9  49   0  
47   0  80   0   0   0   0  93   0   0  12   0   0  69  76   3   0   0  46   0  19   0  97   0   0   0  89   0   0   0   0   1   0  62   0   0   0   8  95   0   0   0   2   4  18   0  76  14  98   0  
29   0   5   0   0   0   0  77   0   0  28   0  71   1   1  50   0   0   0   0  97  40   0   0   0   0  26   0   0   0   0  79   0   2   0   0   0  52  46   0   0   0   0  76  34   0  22  11  12   0  
 0   0  45  59  68  72   0  56   0  18   0  25  45  79   0  79  73   0  51  38   0   0   0   0  13   0  43  64  29  38   0   0  31   8  33   0   0  18   0   0  44   0  72   0   0  44   0   2   0   0  
 0   0  19   0   0  10   0  30   0  30   0   0   8  71   0  29  16   0  95  58   0   0   0  91   0   0   6  19  40   0   0   0  19  88  44   0   0  27   0   0  40   0  73   0   0  78  81  77   0   0  
38  74   0   0   0   0  98   0  67   0  14   0   0   4   0  31   0  38   0   0   0   0   0   0   0   0   0   0   0  29   0  48   0   0  11   0  30   0  68   0   0   3   0   3   6   0   0   0   0   2  
59   0  72   0   0  33   0  49   0   0  17   0  92  53  57  34   0   0   0   0  48  25  17  44  83   0   0   0   0   0   0  99  37  50   0  70   0  85  49   0   0   0  48  61   0   0   0  42  81   0  
 0   0  32   0   0  92   0  59   0  52   0   0  19  25   0   0   0   0  38  97   0   0   0  44  14   0   0   0   0   0   0   0  93  27   0   0   0  78   0   0  91   0   9  39   0  43   0  22   0   0  
 0   0   0  68  89  25  29   0  15   0   0  35  50   0  87  14  78   4  51   1   0   0   0  13  14   0   0   0   0   0   1   0  31   0  64  12   0   0   0  87  51   7   0   0   0   0  40   0   0  93  
72  69   0   0   0   0   0   0  93   0  12   0   0   0   0   0   0  96   0   0   0   0   0   0   0   6   0   0   0   0  61  34   0   0   0   0  33   0  85   0   0  16   0  25  19   0   0   0   0  93  
89   0   0  42  77   0  38   0  31   0   0  34  19   0   0   0  34   0  90  91   0   0   0  20   0   0   0   0  80   0   0   0   0   0  46  53   0   0   0   9  58  67   0   0   0   0  37   0   0   4  
77  20   0   0   0   0   0  23  82   0  40   0   8  28  20   1   0   0   0   0  12  29  92   0   0   3  73   0   0  58   0   0  24   0  42   0   2  45   4   0   0   0   0   7  83   0   0  11  34   0  
55   0   6  57  56  14  96  88  76  90   0  19  90  25   0  37  85   0  57  40   0   0   0  11   8   0  55  49  45   0   0  32   0  20  75   0   0  64   0  53  92  11  74   5   0  11  61  88   0   0  
18   0   1   0   0  55   0   5   0  31   0   0  93  86   0  84   0   0   0   0  72  97  50  95  32   0  40  79   0   0   0   0  81   0   0   0   0  40   0   0  66   0  44  32   0  10   0  19   5   0  
50  93   0  80   0   1  52  90  37   0   0  90  62   6   7  56  26  97   9  76  23   0   0  46  65  77   0   0  82   0  17  26  51   0   0   0  45  39  82  76  11  41  35  26  74   0   0  83   0   1  
32   0   0  98  53   0  31   0   0   0  47  52   0   0   0   0  19   0  61  74   0   0   0  81  66   0   0   0  95   0  15   0   0   0   0   0   0   8   0  20  29   0   0   0   0   0  46   0   0   0  
52  15   0   0   0   0  97   0  38   0  51   0  64  28  29  86   0  33   0   0   0   0   0   0   0  92   0   0   0  54   0  76   0   0   7   0   0   0  75   0   0  16   0  73  51   0   0   0   0  50  
 1   0  70   0   0  61   0  37   0  39   0   0  90  93  15  60   0   0   0   0  81  99   4  28  60   0  51   8   0   0   0  42  45  25  15   0   0   0   0   0  72   0  44  79   0  45   0  22  47   0  
44  91   0  35   0   1   0   0  58   0   2   0   0  19  80  93   0  45   0   0  35  54  57   0   0  20  60   0   0  90   0  68  74   0  16   0  95   0   0   0   0   0   0  56  96   0   0   0  72   0  
 0   0   0  86  84   0  39  25  62   0   0  54  15   0   0   0  43  13  92  37   0   0   0   0   0   0   0   0  24   0  18  29  76   0  10  64   0   0   0   0  11   8   0   0   0   0  71   0   0   4  
46   0   0  56  97   6  61  52  64  36   0  69   4  47   0  39   7   0  52  57   0   0   0  65  62   0   0  60  46   0  21   0  42   0  23  48   0  76   0  31   0  56  61   0   0  36  69  39   0  90  
 0  82   0  15   0   0  62   0  49   0   0  33  65   0   0  67   8  27   0   0  56   0   0   0   6  61   0   0  72   2  76   0  80   0  99   0  15   0   0  35  30   0   0   7   0   0   0   0   0  64  
36   0  37   0  24  96   0  41   0  26   0   0  87  62   0  37   2   0  73  38  58  22   0  33  91  68  49  92   0   0   0   0  14  34  57   0   0  12   0   0  59   0   0   1   0  43   0  11   0   0  
 1  70  80   0   0   0   0  69  78   0  84   0  88  54  89  72  89   0   0   0  50  64   6   0   0  61  30   0   0  52   0  54   2  38  15  94  26  74  48   0   0   0  94   0  67   0   0  27   2   0  
88  90   0   0   0   0   0   0  38   0  67   0   0   8  56  34   0  34   0   0  10  75  59   0   0  90   0   0   0  60   0  63   0   0  11   0  81   0  34   0   0   0   0  75   0   0   0   0  92   0  
 0   0  25   0   0  77   0  95   0  56   0   0  59  28   0   0   0   0  41   0   0   0   0  88  75   0   0  22   0   0   0   0  33  31   0   0   0  86  17   0  29   0  42   0   0   0   0  23   0   0  
 0   0   0  35  47   0  23   0   0   0   0  29  14   0  85   0  98  57  56  79   0   0   0   0   0   0   0   0  40   0  80   0  80  93   0  51   0   0   0  74  97   0   0   0   0   0   0   0   0   0  
38   0  84  35  61   1   0  70   0  36   0   0  49   1   0  43   0   0   0   0  25  26  59  58  54   0  10  65   0   0   0  14  74  80  83   0   0  23   0   0  70   0  71  32   0  24   0   0   8   0  
63   0  63   0   0   0  92  10   0   0  75   0   0  76  15  61   0  76   0   0  13  84  65   0   0   0  44   0  48   0   0  20   0  28   0   0   0  55  34   0   0   0   0  87  56   0  44  18   0   0  
 0  76   0  41   0   0  33   0  48  10   0  59  95   0   0  87  19   7   0   0   0   0   0   0   0  14   0   0  25  79  89   0   0   0  35   0  53   0   0   3  10  62   0   0   0   0   0   0   0   0  
